c Random generated cnf formula, satisfiable: false
p cnf 10 50
-6 -1 -9 0
8 6 -1 0
7 10 -8 0
-2 10 -6 0
-5 -2 -1 0
-1 9 -5 0
-3 -6 -4 0
-4 -7 -6 0
9 -1 6 0
4 -2 -10 0
-4 3 5 0
8 5 -3 0
-8 -7 -9 0
-2 4 9 0
-6 -1 8 0
8 -5 6 0
-9 4 -1 0
-10 9 6 0
-4 9 10 0
5 -4 3 0
3 6 10 0
4 -6 1 0
9 -2 3 0
-6 2 1 0
-7 -2 6 0
2 6 3 0
9 8 7 0
-5 7 9 0
-7 -10 -8 0
-5 6 10 0
10 -9 8 0
-4 -8 9 0
4 -7 6 0
3 5 -2 0
3 -10 -5 0
-9 4 -6 0
4 10 -9 0
1 6 -2 0
-1 5 -8 0
-5 -10 3 0
-10 3 -9 0
4 10 -7 0
-1 -4 -8 0
3 10 -7 0
2 7 -9 0
-1 2 -8 0
-5 -3 10 0
-5 10 7 0
-7 6 4 0
-4 7 6 0
